c *********************************
c * Circuit generated by BenCGen
c *
c * CarrySkipAdder_107_107_107_InOut_G4T
c *
c * Ports with 1 gate(s): 29
c * Ports with 2 gate(s): 590
c * Ports with 3 gate(s): 1
c * Ports with 4 gate(s): 26
c * Total gates: 646
c *********************************
p cnf 860 2176
1 324 0
-1 -324 0
1 -323 0
324 -323 0
-1 -324 323 0
1 108 -327 0
-1 108 327 0
1 -108 327 0
-1 -108 -327 0
327 323 -215 0
-327 323 215 0
327 -323 215 0
-327 -323 -215 0
323 -328 0
327 -328 0
-323 -327 328 0
108 -329 0
1 -329 0
-108 -1 329 0
-328 326 0
-329 326 0
328 329 -326 0
2 109 -331 0
-2 109 331 0
2 -109 331 0
-2 -109 -331 0
331 326 -216 0
-331 326 216 0
331 -326 216 0
-331 -326 -216 0
326 -332 0
331 -332 0
-326 -331 332 0
109 -333 0
2 -333 0
-109 -2 333 0
-332 330 0
-333 330 0
332 333 -330 0
3 110 -335 0
-3 110 335 0
3 -110 335 0
-3 -110 -335 0
335 330 -217 0
-335 330 217 0
335 -330 217 0
-335 -330 -217 0
330 -336 0
335 -336 0
-330 -335 336 0
110 -337 0
3 -337 0
-110 -3 337 0
-336 334 0
-337 334 0
336 337 -334 0
4 111 -338 0
-4 111 338 0
4 -111 338 0
-4 -111 -338 0
338 334 -218 0
-338 334 218 0
338 -334 218 0
-338 -334 -218 0
334 -339 0
338 -339 0
-334 -338 339 0
111 -340 0
4 -340 0
-111 -4 340 0
-339 325 0
-340 325 0
339 340 -325 0
327 -341 0
331 -341 0
335 -341 0
338 -341 0
-327 -331 -335 -338 341 0
340 -342 0
-340 342 0
323 -343 0
341 -343 0
-323 -341 343 0
-343 344 0
-325 344 0
343 325 -344 0
5 112 -347 0
-5 112 347 0
5 -112 347 0
-5 -112 -347 0
347 344 -219 0
-347 344 219 0
347 -344 219 0
-347 -344 -219 0
344 -348 0
347 -348 0
-344 -347 348 0
112 -349 0
5 -349 0
-112 -5 349 0
-348 346 0
-349 346 0
348 349 -346 0
6 113 -351 0
-6 113 351 0
6 -113 351 0
-6 -113 -351 0
351 346 -220 0
-351 346 220 0
351 -346 220 0
-351 -346 -220 0
346 -352 0
351 -352 0
-346 -351 352 0
113 -353 0
6 -353 0
-113 -6 353 0
-352 350 0
-353 350 0
352 353 -350 0
7 114 -355 0
-7 114 355 0
7 -114 355 0
-7 -114 -355 0
355 350 -221 0
-355 350 221 0
355 -350 221 0
-355 -350 -221 0
350 -356 0
355 -356 0
-350 -355 356 0
114 -357 0
7 -357 0
-114 -7 357 0
-356 354 0
-357 354 0
356 357 -354 0
8 115 -358 0
-8 115 358 0
8 -115 358 0
-8 -115 -358 0
358 354 -222 0
-358 354 222 0
358 -354 222 0
-358 -354 -222 0
354 -359 0
358 -359 0
-354 -358 359 0
115 -360 0
8 -360 0
-115 -8 360 0
-359 345 0
-360 345 0
359 360 -345 0
347 -361 0
351 -361 0
355 -361 0
358 -361 0
-347 -351 -355 -358 361 0
360 -362 0
-360 362 0
344 -363 0
361 -363 0
-344 -361 363 0
-363 364 0
-345 364 0
363 345 -364 0
9 116 -367 0
-9 116 367 0
9 -116 367 0
-9 -116 -367 0
367 364 -223 0
-367 364 223 0
367 -364 223 0
-367 -364 -223 0
364 -368 0
367 -368 0
-364 -367 368 0
116 -369 0
9 -369 0
-116 -9 369 0
-368 366 0
-369 366 0
368 369 -366 0
10 117 -371 0
-10 117 371 0
10 -117 371 0
-10 -117 -371 0
371 366 -224 0
-371 366 224 0
371 -366 224 0
-371 -366 -224 0
366 -372 0
371 -372 0
-366 -371 372 0
117 -373 0
10 -373 0
-117 -10 373 0
-372 370 0
-373 370 0
372 373 -370 0
11 118 -375 0
-11 118 375 0
11 -118 375 0
-11 -118 -375 0
375 370 -225 0
-375 370 225 0
375 -370 225 0
-375 -370 -225 0
370 -376 0
375 -376 0
-370 -375 376 0
118 -377 0
11 -377 0
-118 -11 377 0
-376 374 0
-377 374 0
376 377 -374 0
12 119 -378 0
-12 119 378 0
12 -119 378 0
-12 -119 -378 0
378 374 -226 0
-378 374 226 0
378 -374 226 0
-378 -374 -226 0
374 -379 0
378 -379 0
-374 -378 379 0
119 -380 0
12 -380 0
-119 -12 380 0
-379 365 0
-380 365 0
379 380 -365 0
367 -381 0
371 -381 0
375 -381 0
378 -381 0
-367 -371 -375 -378 381 0
380 -382 0
-380 382 0
364 -383 0
381 -383 0
-364 -381 383 0
-383 384 0
-365 384 0
383 365 -384 0
13 120 -387 0
-13 120 387 0
13 -120 387 0
-13 -120 -387 0
387 384 -227 0
-387 384 227 0
387 -384 227 0
-387 -384 -227 0
384 -388 0
387 -388 0
-384 -387 388 0
120 -389 0
13 -389 0
-120 -13 389 0
-388 386 0
-389 386 0
388 389 -386 0
14 121 -391 0
-14 121 391 0
14 -121 391 0
-14 -121 -391 0
391 386 -228 0
-391 386 228 0
391 -386 228 0
-391 -386 -228 0
386 -392 0
391 -392 0
-386 -391 392 0
121 -393 0
14 -393 0
-121 -14 393 0
-392 390 0
-393 390 0
392 393 -390 0
15 122 -395 0
-15 122 395 0
15 -122 395 0
-15 -122 -395 0
395 390 -229 0
-395 390 229 0
395 -390 229 0
-395 -390 -229 0
390 -396 0
395 -396 0
-390 -395 396 0
122 -397 0
15 -397 0
-122 -15 397 0
-396 394 0
-397 394 0
396 397 -394 0
16 123 -398 0
-16 123 398 0
16 -123 398 0
-16 -123 -398 0
398 394 -230 0
-398 394 230 0
398 -394 230 0
-398 -394 -230 0
394 -399 0
398 -399 0
-394 -398 399 0
123 -400 0
16 -400 0
-123 -16 400 0
-399 385 0
-400 385 0
399 400 -385 0
387 -401 0
391 -401 0
395 -401 0
398 -401 0
-387 -391 -395 -398 401 0
400 -402 0
-400 402 0
384 -403 0
401 -403 0
-384 -401 403 0
-403 404 0
-385 404 0
403 385 -404 0
17 124 -407 0
-17 124 407 0
17 -124 407 0
-17 -124 -407 0
407 404 -231 0
-407 404 231 0
407 -404 231 0
-407 -404 -231 0
404 -408 0
407 -408 0
-404 -407 408 0
124 -409 0
17 -409 0
-124 -17 409 0
-408 406 0
-409 406 0
408 409 -406 0
18 125 -411 0
-18 125 411 0
18 -125 411 0
-18 -125 -411 0
411 406 -232 0
-411 406 232 0
411 -406 232 0
-411 -406 -232 0
406 -412 0
411 -412 0
-406 -411 412 0
125 -413 0
18 -413 0
-125 -18 413 0
-412 410 0
-413 410 0
412 413 -410 0
19 126 -415 0
-19 126 415 0
19 -126 415 0
-19 -126 -415 0
415 410 -233 0
-415 410 233 0
415 -410 233 0
-415 -410 -233 0
410 -416 0
415 -416 0
-410 -415 416 0
126 -417 0
19 -417 0
-126 -19 417 0
-416 414 0
-417 414 0
416 417 -414 0
20 127 -418 0
-20 127 418 0
20 -127 418 0
-20 -127 -418 0
418 414 -234 0
-418 414 234 0
418 -414 234 0
-418 -414 -234 0
414 -419 0
418 -419 0
-414 -418 419 0
127 -420 0
20 -420 0
-127 -20 420 0
-419 405 0
-420 405 0
419 420 -405 0
407 -421 0
411 -421 0
415 -421 0
418 -421 0
-407 -411 -415 -418 421 0
420 -422 0
-420 422 0
404 -423 0
421 -423 0
-404 -421 423 0
-423 424 0
-405 424 0
423 405 -424 0
21 128 -427 0
-21 128 427 0
21 -128 427 0
-21 -128 -427 0
427 424 -235 0
-427 424 235 0
427 -424 235 0
-427 -424 -235 0
424 -428 0
427 -428 0
-424 -427 428 0
128 -429 0
21 -429 0
-128 -21 429 0
-428 426 0
-429 426 0
428 429 -426 0
22 129 -431 0
-22 129 431 0
22 -129 431 0
-22 -129 -431 0
431 426 -236 0
-431 426 236 0
431 -426 236 0
-431 -426 -236 0
426 -432 0
431 -432 0
-426 -431 432 0
129 -433 0
22 -433 0
-129 -22 433 0
-432 430 0
-433 430 0
432 433 -430 0
23 130 -435 0
-23 130 435 0
23 -130 435 0
-23 -130 -435 0
435 430 -237 0
-435 430 237 0
435 -430 237 0
-435 -430 -237 0
430 -436 0
435 -436 0
-430 -435 436 0
130 -437 0
23 -437 0
-130 -23 437 0
-436 434 0
-437 434 0
436 437 -434 0
24 131 -438 0
-24 131 438 0
24 -131 438 0
-24 -131 -438 0
438 434 -238 0
-438 434 238 0
438 -434 238 0
-438 -434 -238 0
434 -439 0
438 -439 0
-434 -438 439 0
131 -440 0
24 -440 0
-131 -24 440 0
-439 425 0
-440 425 0
439 440 -425 0
427 -441 0
431 -441 0
435 -441 0
438 -441 0
-427 -431 -435 -438 441 0
440 -442 0
-440 442 0
424 -443 0
441 -443 0
-424 -441 443 0
-443 444 0
-425 444 0
443 425 -444 0
25 132 -447 0
-25 132 447 0
25 -132 447 0
-25 -132 -447 0
447 444 -239 0
-447 444 239 0
447 -444 239 0
-447 -444 -239 0
444 -448 0
447 -448 0
-444 -447 448 0
132 -449 0
25 -449 0
-132 -25 449 0
-448 446 0
-449 446 0
448 449 -446 0
26 133 -451 0
-26 133 451 0
26 -133 451 0
-26 -133 -451 0
451 446 -240 0
-451 446 240 0
451 -446 240 0
-451 -446 -240 0
446 -452 0
451 -452 0
-446 -451 452 0
133 -453 0
26 -453 0
-133 -26 453 0
-452 450 0
-453 450 0
452 453 -450 0
27 134 -455 0
-27 134 455 0
27 -134 455 0
-27 -134 -455 0
455 450 -241 0
-455 450 241 0
455 -450 241 0
-455 -450 -241 0
450 -456 0
455 -456 0
-450 -455 456 0
134 -457 0
27 -457 0
-134 -27 457 0
-456 454 0
-457 454 0
456 457 -454 0
28 135 -458 0
-28 135 458 0
28 -135 458 0
-28 -135 -458 0
458 454 -242 0
-458 454 242 0
458 -454 242 0
-458 -454 -242 0
454 -459 0
458 -459 0
-454 -458 459 0
135 -460 0
28 -460 0
-135 -28 460 0
-459 445 0
-460 445 0
459 460 -445 0
447 -461 0
451 -461 0
455 -461 0
458 -461 0
-447 -451 -455 -458 461 0
460 -462 0
-460 462 0
444 -463 0
461 -463 0
-444 -461 463 0
-463 464 0
-445 464 0
463 445 -464 0
29 136 -467 0
-29 136 467 0
29 -136 467 0
-29 -136 -467 0
467 464 -243 0
-467 464 243 0
467 -464 243 0
-467 -464 -243 0
464 -468 0
467 -468 0
-464 -467 468 0
136 -469 0
29 -469 0
-136 -29 469 0
-468 466 0
-469 466 0
468 469 -466 0
30 137 -471 0
-30 137 471 0
30 -137 471 0
-30 -137 -471 0
471 466 -244 0
-471 466 244 0
471 -466 244 0
-471 -466 -244 0
466 -472 0
471 -472 0
-466 -471 472 0
137 -473 0
30 -473 0
-137 -30 473 0
-472 470 0
-473 470 0
472 473 -470 0
31 138 -475 0
-31 138 475 0
31 -138 475 0
-31 -138 -475 0
475 470 -245 0
-475 470 245 0
475 -470 245 0
-475 -470 -245 0
470 -476 0
475 -476 0
-470 -475 476 0
138 -477 0
31 -477 0
-138 -31 477 0
-476 474 0
-477 474 0
476 477 -474 0
32 139 -478 0
-32 139 478 0
32 -139 478 0
-32 -139 -478 0
478 474 -246 0
-478 474 246 0
478 -474 246 0
-478 -474 -246 0
474 -479 0
478 -479 0
-474 -478 479 0
139 -480 0
32 -480 0
-139 -32 480 0
-479 465 0
-480 465 0
479 480 -465 0
467 -481 0
471 -481 0
475 -481 0
478 -481 0
-467 -471 -475 -478 481 0
480 -482 0
-480 482 0
464 -483 0
481 -483 0
-464 -481 483 0
-483 484 0
-465 484 0
483 465 -484 0
33 140 -487 0
-33 140 487 0
33 -140 487 0
-33 -140 -487 0
487 484 -247 0
-487 484 247 0
487 -484 247 0
-487 -484 -247 0
484 -488 0
487 -488 0
-484 -487 488 0
140 -489 0
33 -489 0
-140 -33 489 0
-488 486 0
-489 486 0
488 489 -486 0
34 141 -491 0
-34 141 491 0
34 -141 491 0
-34 -141 -491 0
491 486 -248 0
-491 486 248 0
491 -486 248 0
-491 -486 -248 0
486 -492 0
491 -492 0
-486 -491 492 0
141 -493 0
34 -493 0
-141 -34 493 0
-492 490 0
-493 490 0
492 493 -490 0
35 142 -495 0
-35 142 495 0
35 -142 495 0
-35 -142 -495 0
495 490 -249 0
-495 490 249 0
495 -490 249 0
-495 -490 -249 0
490 -496 0
495 -496 0
-490 -495 496 0
142 -497 0
35 -497 0
-142 -35 497 0
-496 494 0
-497 494 0
496 497 -494 0
36 143 -498 0
-36 143 498 0
36 -143 498 0
-36 -143 -498 0
498 494 -250 0
-498 494 250 0
498 -494 250 0
-498 -494 -250 0
494 -499 0
498 -499 0
-494 -498 499 0
143 -500 0
36 -500 0
-143 -36 500 0
-499 485 0
-500 485 0
499 500 -485 0
487 -501 0
491 -501 0
495 -501 0
498 -501 0
-487 -491 -495 -498 501 0
500 -502 0
-500 502 0
484 -503 0
501 -503 0
-484 -501 503 0
-503 504 0
-485 504 0
503 485 -504 0
37 144 -507 0
-37 144 507 0
37 -144 507 0
-37 -144 -507 0
507 504 -251 0
-507 504 251 0
507 -504 251 0
-507 -504 -251 0
504 -508 0
507 -508 0
-504 -507 508 0
144 -509 0
37 -509 0
-144 -37 509 0
-508 506 0
-509 506 0
508 509 -506 0
38 145 -511 0
-38 145 511 0
38 -145 511 0
-38 -145 -511 0
511 506 -252 0
-511 506 252 0
511 -506 252 0
-511 -506 -252 0
506 -512 0
511 -512 0
-506 -511 512 0
145 -513 0
38 -513 0
-145 -38 513 0
-512 510 0
-513 510 0
512 513 -510 0
39 146 -515 0
-39 146 515 0
39 -146 515 0
-39 -146 -515 0
515 510 -253 0
-515 510 253 0
515 -510 253 0
-515 -510 -253 0
510 -516 0
515 -516 0
-510 -515 516 0
146 -517 0
39 -517 0
-146 -39 517 0
-516 514 0
-517 514 0
516 517 -514 0
40 147 -518 0
-40 147 518 0
40 -147 518 0
-40 -147 -518 0
518 514 -254 0
-518 514 254 0
518 -514 254 0
-518 -514 -254 0
514 -519 0
518 -519 0
-514 -518 519 0
147 -520 0
40 -520 0
-147 -40 520 0
-519 505 0
-520 505 0
519 520 -505 0
507 -521 0
511 -521 0
515 -521 0
518 -521 0
-507 -511 -515 -518 521 0
520 -522 0
-520 522 0
504 -523 0
521 -523 0
-504 -521 523 0
-523 524 0
-505 524 0
523 505 -524 0
41 148 -527 0
-41 148 527 0
41 -148 527 0
-41 -148 -527 0
527 524 -255 0
-527 524 255 0
527 -524 255 0
-527 -524 -255 0
524 -528 0
527 -528 0
-524 -527 528 0
148 -529 0
41 -529 0
-148 -41 529 0
-528 526 0
-529 526 0
528 529 -526 0
42 149 -531 0
-42 149 531 0
42 -149 531 0
-42 -149 -531 0
531 526 -256 0
-531 526 256 0
531 -526 256 0
-531 -526 -256 0
526 -532 0
531 -532 0
-526 -531 532 0
149 -533 0
42 -533 0
-149 -42 533 0
-532 530 0
-533 530 0
532 533 -530 0
43 150 -535 0
-43 150 535 0
43 -150 535 0
-43 -150 -535 0
535 530 -257 0
-535 530 257 0
535 -530 257 0
-535 -530 -257 0
530 -536 0
535 -536 0
-530 -535 536 0
150 -537 0
43 -537 0
-150 -43 537 0
-536 534 0
-537 534 0
536 537 -534 0
44 151 -538 0
-44 151 538 0
44 -151 538 0
-44 -151 -538 0
538 534 -258 0
-538 534 258 0
538 -534 258 0
-538 -534 -258 0
534 -539 0
538 -539 0
-534 -538 539 0
151 -540 0
44 -540 0
-151 -44 540 0
-539 525 0
-540 525 0
539 540 -525 0
527 -541 0
531 -541 0
535 -541 0
538 -541 0
-527 -531 -535 -538 541 0
540 -542 0
-540 542 0
524 -543 0
541 -543 0
-524 -541 543 0
-543 544 0
-525 544 0
543 525 -544 0
45 152 -547 0
-45 152 547 0
45 -152 547 0
-45 -152 -547 0
547 544 -259 0
-547 544 259 0
547 -544 259 0
-547 -544 -259 0
544 -548 0
547 -548 0
-544 -547 548 0
152 -549 0
45 -549 0
-152 -45 549 0
-548 546 0
-549 546 0
548 549 -546 0
46 153 -551 0
-46 153 551 0
46 -153 551 0
-46 -153 -551 0
551 546 -260 0
-551 546 260 0
551 -546 260 0
-551 -546 -260 0
546 -552 0
551 -552 0
-546 -551 552 0
153 -553 0
46 -553 0
-153 -46 553 0
-552 550 0
-553 550 0
552 553 -550 0
47 154 -555 0
-47 154 555 0
47 -154 555 0
-47 -154 -555 0
555 550 -261 0
-555 550 261 0
555 -550 261 0
-555 -550 -261 0
550 -556 0
555 -556 0
-550 -555 556 0
154 -557 0
47 -557 0
-154 -47 557 0
-556 554 0
-557 554 0
556 557 -554 0
48 155 -558 0
-48 155 558 0
48 -155 558 0
-48 -155 -558 0
558 554 -262 0
-558 554 262 0
558 -554 262 0
-558 -554 -262 0
554 -559 0
558 -559 0
-554 -558 559 0
155 -560 0
48 -560 0
-155 -48 560 0
-559 545 0
-560 545 0
559 560 -545 0
547 -561 0
551 -561 0
555 -561 0
558 -561 0
-547 -551 -555 -558 561 0
560 -562 0
-560 562 0
544 -563 0
561 -563 0
-544 -561 563 0
-563 564 0
-545 564 0
563 545 -564 0
49 156 -567 0
-49 156 567 0
49 -156 567 0
-49 -156 -567 0
567 564 -263 0
-567 564 263 0
567 -564 263 0
-567 -564 -263 0
564 -568 0
567 -568 0
-564 -567 568 0
156 -569 0
49 -569 0
-156 -49 569 0
-568 566 0
-569 566 0
568 569 -566 0
50 157 -571 0
-50 157 571 0
50 -157 571 0
-50 -157 -571 0
571 566 -264 0
-571 566 264 0
571 -566 264 0
-571 -566 -264 0
566 -572 0
571 -572 0
-566 -571 572 0
157 -573 0
50 -573 0
-157 -50 573 0
-572 570 0
-573 570 0
572 573 -570 0
51 158 -575 0
-51 158 575 0
51 -158 575 0
-51 -158 -575 0
575 570 -265 0
-575 570 265 0
575 -570 265 0
-575 -570 -265 0
570 -576 0
575 -576 0
-570 -575 576 0
158 -577 0
51 -577 0
-158 -51 577 0
-576 574 0
-577 574 0
576 577 -574 0
52 159 -578 0
-52 159 578 0
52 -159 578 0
-52 -159 -578 0
578 574 -266 0
-578 574 266 0
578 -574 266 0
-578 -574 -266 0
574 -579 0
578 -579 0
-574 -578 579 0
159 -580 0
52 -580 0
-159 -52 580 0
-579 565 0
-580 565 0
579 580 -565 0
567 -581 0
571 -581 0
575 -581 0
578 -581 0
-567 -571 -575 -578 581 0
580 -582 0
-580 582 0
564 -583 0
581 -583 0
-564 -581 583 0
-583 584 0
-565 584 0
583 565 -584 0
53 160 -587 0
-53 160 587 0
53 -160 587 0
-53 -160 -587 0
587 584 -267 0
-587 584 267 0
587 -584 267 0
-587 -584 -267 0
584 -588 0
587 -588 0
-584 -587 588 0
160 -589 0
53 -589 0
-160 -53 589 0
-588 586 0
-589 586 0
588 589 -586 0
54 161 -591 0
-54 161 591 0
54 -161 591 0
-54 -161 -591 0
591 586 -268 0
-591 586 268 0
591 -586 268 0
-591 -586 -268 0
586 -592 0
591 -592 0
-586 -591 592 0
161 -593 0
54 -593 0
-161 -54 593 0
-592 590 0
-593 590 0
592 593 -590 0
55 162 -595 0
-55 162 595 0
55 -162 595 0
-55 -162 -595 0
595 590 -269 0
-595 590 269 0
595 -590 269 0
-595 -590 -269 0
590 -596 0
595 -596 0
-590 -595 596 0
162 -597 0
55 -597 0
-162 -55 597 0
-596 594 0
-597 594 0
596 597 -594 0
56 163 -598 0
-56 163 598 0
56 -163 598 0
-56 -163 -598 0
598 594 -270 0
-598 594 270 0
598 -594 270 0
-598 -594 -270 0
594 -599 0
598 -599 0
-594 -598 599 0
163 -600 0
56 -600 0
-163 -56 600 0
-599 585 0
-600 585 0
599 600 -585 0
587 -601 0
591 -601 0
595 -601 0
598 -601 0
-587 -591 -595 -598 601 0
600 -602 0
-600 602 0
584 -603 0
601 -603 0
-584 -601 603 0
-603 604 0
-585 604 0
603 585 -604 0
57 164 -607 0
-57 164 607 0
57 -164 607 0
-57 -164 -607 0
607 604 -271 0
-607 604 271 0
607 -604 271 0
-607 -604 -271 0
604 -608 0
607 -608 0
-604 -607 608 0
164 -609 0
57 -609 0
-164 -57 609 0
-608 606 0
-609 606 0
608 609 -606 0
58 165 -611 0
-58 165 611 0
58 -165 611 0
-58 -165 -611 0
611 606 -272 0
-611 606 272 0
611 -606 272 0
-611 -606 -272 0
606 -612 0
611 -612 0
-606 -611 612 0
165 -613 0
58 -613 0
-165 -58 613 0
-612 610 0
-613 610 0
612 613 -610 0
59 166 -615 0
-59 166 615 0
59 -166 615 0
-59 -166 -615 0
615 610 -273 0
-615 610 273 0
615 -610 273 0
-615 -610 -273 0
610 -616 0
615 -616 0
-610 -615 616 0
166 -617 0
59 -617 0
-166 -59 617 0
-616 614 0
-617 614 0
616 617 -614 0
60 167 -618 0
-60 167 618 0
60 -167 618 0
-60 -167 -618 0
618 614 -274 0
-618 614 274 0
618 -614 274 0
-618 -614 -274 0
614 -619 0
618 -619 0
-614 -618 619 0
167 -620 0
60 -620 0
-167 -60 620 0
-619 605 0
-620 605 0
619 620 -605 0
607 -621 0
611 -621 0
615 -621 0
618 -621 0
-607 -611 -615 -618 621 0
620 -622 0
-620 622 0
604 -623 0
621 -623 0
-604 -621 623 0
-623 624 0
-605 624 0
623 605 -624 0
61 168 -627 0
-61 168 627 0
61 -168 627 0
-61 -168 -627 0
627 624 -275 0
-627 624 275 0
627 -624 275 0
-627 -624 -275 0
624 -628 0
627 -628 0
-624 -627 628 0
168 -629 0
61 -629 0
-168 -61 629 0
-628 626 0
-629 626 0
628 629 -626 0
62 169 -631 0
-62 169 631 0
62 -169 631 0
-62 -169 -631 0
631 626 -276 0
-631 626 276 0
631 -626 276 0
-631 -626 -276 0
626 -632 0
631 -632 0
-626 -631 632 0
169 -633 0
62 -633 0
-169 -62 633 0
-632 630 0
-633 630 0
632 633 -630 0
63 170 -635 0
-63 170 635 0
63 -170 635 0
-63 -170 -635 0
635 630 -277 0
-635 630 277 0
635 -630 277 0
-635 -630 -277 0
630 -636 0
635 -636 0
-630 -635 636 0
170 -637 0
63 -637 0
-170 -63 637 0
-636 634 0
-637 634 0
636 637 -634 0
64 171 -638 0
-64 171 638 0
64 -171 638 0
-64 -171 -638 0
638 634 -278 0
-638 634 278 0
638 -634 278 0
-638 -634 -278 0
634 -639 0
638 -639 0
-634 -638 639 0
171 -640 0
64 -640 0
-171 -64 640 0
-639 625 0
-640 625 0
639 640 -625 0
627 -641 0
631 -641 0
635 -641 0
638 -641 0
-627 -631 -635 -638 641 0
640 -642 0
-640 642 0
624 -643 0
641 -643 0
-624 -641 643 0
-643 644 0
-625 644 0
643 625 -644 0
65 172 -647 0
-65 172 647 0
65 -172 647 0
-65 -172 -647 0
647 644 -279 0
-647 644 279 0
647 -644 279 0
-647 -644 -279 0
644 -648 0
647 -648 0
-644 -647 648 0
172 -649 0
65 -649 0
-172 -65 649 0
-648 646 0
-649 646 0
648 649 -646 0
66 173 -651 0
-66 173 651 0
66 -173 651 0
-66 -173 -651 0
651 646 -280 0
-651 646 280 0
651 -646 280 0
-651 -646 -280 0
646 -652 0
651 -652 0
-646 -651 652 0
173 -653 0
66 -653 0
-173 -66 653 0
-652 650 0
-653 650 0
652 653 -650 0
67 174 -655 0
-67 174 655 0
67 -174 655 0
-67 -174 -655 0
655 650 -281 0
-655 650 281 0
655 -650 281 0
-655 -650 -281 0
650 -656 0
655 -656 0
-650 -655 656 0
174 -657 0
67 -657 0
-174 -67 657 0
-656 654 0
-657 654 0
656 657 -654 0
68 175 -658 0
-68 175 658 0
68 -175 658 0
-68 -175 -658 0
658 654 -282 0
-658 654 282 0
658 -654 282 0
-658 -654 -282 0
654 -659 0
658 -659 0
-654 -658 659 0
175 -660 0
68 -660 0
-175 -68 660 0
-659 645 0
-660 645 0
659 660 -645 0
647 -661 0
651 -661 0
655 -661 0
658 -661 0
-647 -651 -655 -658 661 0
660 -662 0
-660 662 0
644 -663 0
661 -663 0
-644 -661 663 0
-663 664 0
-645 664 0
663 645 -664 0
69 176 -667 0
-69 176 667 0
69 -176 667 0
-69 -176 -667 0
667 664 -283 0
-667 664 283 0
667 -664 283 0
-667 -664 -283 0
664 -668 0
667 -668 0
-664 -667 668 0
176 -669 0
69 -669 0
-176 -69 669 0
-668 666 0
-669 666 0
668 669 -666 0
70 177 -671 0
-70 177 671 0
70 -177 671 0
-70 -177 -671 0
671 666 -284 0
-671 666 284 0
671 -666 284 0
-671 -666 -284 0
666 -672 0
671 -672 0
-666 -671 672 0
177 -673 0
70 -673 0
-177 -70 673 0
-672 670 0
-673 670 0
672 673 -670 0
71 178 -675 0
-71 178 675 0
71 -178 675 0
-71 -178 -675 0
675 670 -285 0
-675 670 285 0
675 -670 285 0
-675 -670 -285 0
670 -676 0
675 -676 0
-670 -675 676 0
178 -677 0
71 -677 0
-178 -71 677 0
-676 674 0
-677 674 0
676 677 -674 0
72 179 -678 0
-72 179 678 0
72 -179 678 0
-72 -179 -678 0
678 674 -286 0
-678 674 286 0
678 -674 286 0
-678 -674 -286 0
674 -679 0
678 -679 0
-674 -678 679 0
179 -680 0
72 -680 0
-179 -72 680 0
-679 665 0
-680 665 0
679 680 -665 0
667 -681 0
671 -681 0
675 -681 0
678 -681 0
-667 -671 -675 -678 681 0
680 -682 0
-680 682 0
664 -683 0
681 -683 0
-664 -681 683 0
-683 684 0
-665 684 0
683 665 -684 0
73 180 -687 0
-73 180 687 0
73 -180 687 0
-73 -180 -687 0
687 684 -287 0
-687 684 287 0
687 -684 287 0
-687 -684 -287 0
684 -688 0
687 -688 0
-684 -687 688 0
180 -689 0
73 -689 0
-180 -73 689 0
-688 686 0
-689 686 0
688 689 -686 0
74 181 -691 0
-74 181 691 0
74 -181 691 0
-74 -181 -691 0
691 686 -288 0
-691 686 288 0
691 -686 288 0
-691 -686 -288 0
686 -692 0
691 -692 0
-686 -691 692 0
181 -693 0
74 -693 0
-181 -74 693 0
-692 690 0
-693 690 0
692 693 -690 0
75 182 -695 0
-75 182 695 0
75 -182 695 0
-75 -182 -695 0
695 690 -289 0
-695 690 289 0
695 -690 289 0
-695 -690 -289 0
690 -696 0
695 -696 0
-690 -695 696 0
182 -697 0
75 -697 0
-182 -75 697 0
-696 694 0
-697 694 0
696 697 -694 0
76 183 -698 0
-76 183 698 0
76 -183 698 0
-76 -183 -698 0
698 694 -290 0
-698 694 290 0
698 -694 290 0
-698 -694 -290 0
694 -699 0
698 -699 0
-694 -698 699 0
183 -700 0
76 -700 0
-183 -76 700 0
-699 685 0
-700 685 0
699 700 -685 0
687 -701 0
691 -701 0
695 -701 0
698 -701 0
-687 -691 -695 -698 701 0
700 -702 0
-700 702 0
684 -703 0
701 -703 0
-684 -701 703 0
-703 704 0
-685 704 0
703 685 -704 0
77 184 -707 0
-77 184 707 0
77 -184 707 0
-77 -184 -707 0
707 704 -291 0
-707 704 291 0
707 -704 291 0
-707 -704 -291 0
704 -708 0
707 -708 0
-704 -707 708 0
184 -709 0
77 -709 0
-184 -77 709 0
-708 706 0
-709 706 0
708 709 -706 0
78 185 -711 0
-78 185 711 0
78 -185 711 0
-78 -185 -711 0
711 706 -292 0
-711 706 292 0
711 -706 292 0
-711 -706 -292 0
706 -712 0
711 -712 0
-706 -711 712 0
185 -713 0
78 -713 0
-185 -78 713 0
-712 710 0
-713 710 0
712 713 -710 0
79 186 -715 0
-79 186 715 0
79 -186 715 0
-79 -186 -715 0
715 710 -293 0
-715 710 293 0
715 -710 293 0
-715 -710 -293 0
710 -716 0
715 -716 0
-710 -715 716 0
186 -717 0
79 -717 0
-186 -79 717 0
-716 714 0
-717 714 0
716 717 -714 0
80 187 -718 0
-80 187 718 0
80 -187 718 0
-80 -187 -718 0
718 714 -294 0
-718 714 294 0
718 -714 294 0
-718 -714 -294 0
714 -719 0
718 -719 0
-714 -718 719 0
187 -720 0
80 -720 0
-187 -80 720 0
-719 705 0
-720 705 0
719 720 -705 0
707 -721 0
711 -721 0
715 -721 0
718 -721 0
-707 -711 -715 -718 721 0
720 -722 0
-720 722 0
704 -723 0
721 -723 0
-704 -721 723 0
-723 724 0
-705 724 0
723 705 -724 0
81 188 -727 0
-81 188 727 0
81 -188 727 0
-81 -188 -727 0
727 724 -295 0
-727 724 295 0
727 -724 295 0
-727 -724 -295 0
724 -728 0
727 -728 0
-724 -727 728 0
188 -729 0
81 -729 0
-188 -81 729 0
-728 726 0
-729 726 0
728 729 -726 0
82 189 -731 0
-82 189 731 0
82 -189 731 0
-82 -189 -731 0
731 726 -296 0
-731 726 296 0
731 -726 296 0
-731 -726 -296 0
726 -732 0
731 -732 0
-726 -731 732 0
189 -733 0
82 -733 0
-189 -82 733 0
-732 730 0
-733 730 0
732 733 -730 0
83 190 -735 0
-83 190 735 0
83 -190 735 0
-83 -190 -735 0
735 730 -297 0
-735 730 297 0
735 -730 297 0
-735 -730 -297 0
730 -736 0
735 -736 0
-730 -735 736 0
190 -737 0
83 -737 0
-190 -83 737 0
-736 734 0
-737 734 0
736 737 -734 0
84 191 -738 0
-84 191 738 0
84 -191 738 0
-84 -191 -738 0
738 734 -298 0
-738 734 298 0
738 -734 298 0
-738 -734 -298 0
734 -739 0
738 -739 0
-734 -738 739 0
191 -740 0
84 -740 0
-191 -84 740 0
-739 725 0
-740 725 0
739 740 -725 0
727 -741 0
731 -741 0
735 -741 0
738 -741 0
-727 -731 -735 -738 741 0
740 -742 0
-740 742 0
724 -743 0
741 -743 0
-724 -741 743 0
-743 744 0
-725 744 0
743 725 -744 0
85 192 -747 0
-85 192 747 0
85 -192 747 0
-85 -192 -747 0
747 744 -299 0
-747 744 299 0
747 -744 299 0
-747 -744 -299 0
744 -748 0
747 -748 0
-744 -747 748 0
192 -749 0
85 -749 0
-192 -85 749 0
-748 746 0
-749 746 0
748 749 -746 0
86 193 -751 0
-86 193 751 0
86 -193 751 0
-86 -193 -751 0
751 746 -300 0
-751 746 300 0
751 -746 300 0
-751 -746 -300 0
746 -752 0
751 -752 0
-746 -751 752 0
193 -753 0
86 -753 0
-193 -86 753 0
-752 750 0
-753 750 0
752 753 -750 0
87 194 -755 0
-87 194 755 0
87 -194 755 0
-87 -194 -755 0
755 750 -301 0
-755 750 301 0
755 -750 301 0
-755 -750 -301 0
750 -756 0
755 -756 0
-750 -755 756 0
194 -757 0
87 -757 0
-194 -87 757 0
-756 754 0
-757 754 0
756 757 -754 0
88 195 -758 0
-88 195 758 0
88 -195 758 0
-88 -195 -758 0
758 754 -302 0
-758 754 302 0
758 -754 302 0
-758 -754 -302 0
754 -759 0
758 -759 0
-754 -758 759 0
195 -760 0
88 -760 0
-195 -88 760 0
-759 745 0
-760 745 0
759 760 -745 0
747 -761 0
751 -761 0
755 -761 0
758 -761 0
-747 -751 -755 -758 761 0
760 -762 0
-760 762 0
744 -763 0
761 -763 0
-744 -761 763 0
-763 764 0
-745 764 0
763 745 -764 0
89 196 -767 0
-89 196 767 0
89 -196 767 0
-89 -196 -767 0
767 764 -303 0
-767 764 303 0
767 -764 303 0
-767 -764 -303 0
764 -768 0
767 -768 0
-764 -767 768 0
196 -769 0
89 -769 0
-196 -89 769 0
-768 766 0
-769 766 0
768 769 -766 0
90 197 -771 0
-90 197 771 0
90 -197 771 0
-90 -197 -771 0
771 766 -304 0
-771 766 304 0
771 -766 304 0
-771 -766 -304 0
766 -772 0
771 -772 0
-766 -771 772 0
197 -773 0
90 -773 0
-197 -90 773 0
-772 770 0
-773 770 0
772 773 -770 0
91 198 -775 0
-91 198 775 0
91 -198 775 0
-91 -198 -775 0
775 770 -305 0
-775 770 305 0
775 -770 305 0
-775 -770 -305 0
770 -776 0
775 -776 0
-770 -775 776 0
198 -777 0
91 -777 0
-198 -91 777 0
-776 774 0
-777 774 0
776 777 -774 0
92 199 -778 0
-92 199 778 0
92 -199 778 0
-92 -199 -778 0
778 774 -306 0
-778 774 306 0
778 -774 306 0
-778 -774 -306 0
774 -779 0
778 -779 0
-774 -778 779 0
199 -780 0
92 -780 0
-199 -92 780 0
-779 765 0
-780 765 0
779 780 -765 0
767 -781 0
771 -781 0
775 -781 0
778 -781 0
-767 -771 -775 -778 781 0
780 -782 0
-780 782 0
764 -783 0
781 -783 0
-764 -781 783 0
-783 784 0
-765 784 0
783 765 -784 0
93 200 -787 0
-93 200 787 0
93 -200 787 0
-93 -200 -787 0
787 784 -307 0
-787 784 307 0
787 -784 307 0
-787 -784 -307 0
784 -788 0
787 -788 0
-784 -787 788 0
200 -789 0
93 -789 0
-200 -93 789 0
-788 786 0
-789 786 0
788 789 -786 0
94 201 -791 0
-94 201 791 0
94 -201 791 0
-94 -201 -791 0
791 786 -308 0
-791 786 308 0
791 -786 308 0
-791 -786 -308 0
786 -792 0
791 -792 0
-786 -791 792 0
201 -793 0
94 -793 0
-201 -94 793 0
-792 790 0
-793 790 0
792 793 -790 0
95 202 -795 0
-95 202 795 0
95 -202 795 0
-95 -202 -795 0
795 790 -309 0
-795 790 309 0
795 -790 309 0
-795 -790 -309 0
790 -796 0
795 -796 0
-790 -795 796 0
202 -797 0
95 -797 0
-202 -95 797 0
-796 794 0
-797 794 0
796 797 -794 0
96 203 -798 0
-96 203 798 0
96 -203 798 0
-96 -203 -798 0
798 794 -310 0
-798 794 310 0
798 -794 310 0
-798 -794 -310 0
794 -799 0
798 -799 0
-794 -798 799 0
203 -800 0
96 -800 0
-203 -96 800 0
-799 785 0
-800 785 0
799 800 -785 0
787 -801 0
791 -801 0
795 -801 0
798 -801 0
-787 -791 -795 -798 801 0
800 -802 0
-800 802 0
784 -803 0
801 -803 0
-784 -801 803 0
-803 804 0
-785 804 0
803 785 -804 0
97 204 -807 0
-97 204 807 0
97 -204 807 0
-97 -204 -807 0
807 804 -311 0
-807 804 311 0
807 -804 311 0
-807 -804 -311 0
804 -808 0
807 -808 0
-804 -807 808 0
204 -809 0
97 -809 0
-204 -97 809 0
-808 806 0
-809 806 0
808 809 -806 0
98 205 -811 0
-98 205 811 0
98 -205 811 0
-98 -205 -811 0
811 806 -312 0
-811 806 312 0
811 -806 312 0
-811 -806 -312 0
806 -812 0
811 -812 0
-806 -811 812 0
205 -813 0
98 -813 0
-205 -98 813 0
-812 810 0
-813 810 0
812 813 -810 0
99 206 -815 0
-99 206 815 0
99 -206 815 0
-99 -206 -815 0
815 810 -313 0
-815 810 313 0
815 -810 313 0
-815 -810 -313 0
810 -816 0
815 -816 0
-810 -815 816 0
206 -817 0
99 -817 0
-206 -99 817 0
-816 814 0
-817 814 0
816 817 -814 0
100 207 -818 0
-100 207 818 0
100 -207 818 0
-100 -207 -818 0
818 814 -314 0
-818 814 314 0
818 -814 314 0
-818 -814 -314 0
814 -819 0
818 -819 0
-814 -818 819 0
207 -820 0
100 -820 0
-207 -100 820 0
-819 805 0
-820 805 0
819 820 -805 0
807 -821 0
811 -821 0
815 -821 0
818 -821 0
-807 -811 -815 -818 821 0
820 -822 0
-820 822 0
804 -823 0
821 -823 0
-804 -821 823 0
-823 824 0
-805 824 0
823 805 -824 0
101 208 -827 0
-101 208 827 0
101 -208 827 0
-101 -208 -827 0
827 824 -315 0
-827 824 315 0
827 -824 315 0
-827 -824 -315 0
824 -828 0
827 -828 0
-824 -827 828 0
208 -829 0
101 -829 0
-208 -101 829 0
-828 826 0
-829 826 0
828 829 -826 0
102 209 -831 0
-102 209 831 0
102 -209 831 0
-102 -209 -831 0
831 826 -316 0
-831 826 316 0
831 -826 316 0
-831 -826 -316 0
826 -832 0
831 -832 0
-826 -831 832 0
209 -833 0
102 -833 0
-209 -102 833 0
-832 830 0
-833 830 0
832 833 -830 0
103 210 -835 0
-103 210 835 0
103 -210 835 0
-103 -210 -835 0
835 830 -317 0
-835 830 317 0
835 -830 317 0
-835 -830 -317 0
830 -836 0
835 -836 0
-830 -835 836 0
210 -837 0
103 -837 0
-210 -103 837 0
-836 834 0
-837 834 0
836 837 -834 0
104 211 -838 0
-104 211 838 0
104 -211 838 0
-104 -211 -838 0
838 834 -318 0
-838 834 318 0
838 -834 318 0
-838 -834 -318 0
834 -839 0
838 -839 0
-834 -838 839 0
211 -840 0
104 -840 0
-211 -104 840 0
-839 825 0
-840 825 0
839 840 -825 0
827 -841 0
831 -841 0
835 -841 0
838 -841 0
-827 -831 -835 -838 841 0
840 -842 0
-840 842 0
824 -843 0
841 -843 0
-824 -841 843 0
-843 844 0
-825 844 0
843 825 -844 0
105 212 -847 0
-105 212 847 0
105 -212 847 0
-105 -212 -847 0
847 844 -319 0
-847 844 319 0
847 -844 319 0
-847 -844 -319 0
844 -848 0
847 -848 0
-844 -847 848 0
212 -849 0
105 -849 0
-212 -105 849 0
-848 846 0
-849 846 0
848 849 -846 0
106 213 -851 0
-106 213 851 0
106 -213 851 0
-106 -213 -851 0
851 846 -320 0
-851 846 320 0
851 -846 320 0
-851 -846 -320 0
846 -852 0
851 -852 0
-846 -851 852 0
213 -853 0
106 -853 0
-213 -106 853 0
-852 850 0
-853 850 0
852 853 -850 0
107 214 -854 0
-107 214 854 0
107 -214 854 0
-107 -214 -854 0
854 850 -321 0
-854 850 321 0
854 -850 321 0
-854 -850 -321 0
850 -855 0
854 -855 0
-850 -854 855 0
214 -856 0
107 -856 0
-214 -107 856 0
-855 845 0
-856 845 0
855 856 -845 0
847 -857 0
851 -857 0
854 -857 0
-847 -851 -854 857 0
856 -858 0
-856 858 0
844 -859 0
857 -859 0
-844 -857 859 0
-859 860 0
-845 860 0
859 845 -860 0
860 -322 0
-860 322 0
